Running for instance ./models/c101.txt
Generating routes...
Execution time:  32.577113  seconds
Academic license - for non-commercial use only
Warning: constraint name "Cliente esta na rota x1" has a space
Optimize a model with 26 rows, 10000 columns and 58942 nonzeros
Variable types: 0 continuous, 10000 integer (0 binary)
Coefficient statistics:
  Matrix range     [1e+00, 1e+00]
  Objective range  [2e+01, 2e+02]
  Bounds range     [1e+00, 1e+00]
  RHS range        [1e+00, 2e+01]
Found heuristic solution: objective 573.4140765
Presolve removed 1 rows and 0 columns
Presolve time: 0.06s
Presolved: 25 rows, 10000 columns, 48942 nonzeros
Variable types: 0 continuous, 10000 integer (10000 binary)

Root relaxation: objective 2.561277e+02, 84 iterations, 0.01 seconds

    Nodes    |    Current Node    |     Objective Bounds      |     Work
 Expl Unexpl |  Obj  Depth IntInf | Incumbent    BestBd   Gap | It/Node Time

*    0     0               0     256.1277276  256.12773  0.00%     -    0s

Explored 0 nodes (84 simplex iterations) in 0.08 seconds
Thread count was 8 (of 8 available processors)

Solution count 2: 256.128 573.414 

Optimal solution found (tolerance 1.00e-04)
Best objective 2.561277276122e+02, best bound 2.561277276122e+02, gap 0.0000%

Routes:
13 11 9
20 24 25 23 22 21
5 3 7 8 10 6 4 2 1
17 18 19 15 16 14 12

Distance: 256.127727612
Execution time:  33.515408  seconds
